NAME: line_70_1
TYPE: TSP
COMMENT: line_70_1
DIMENSION: 70
EDGE_WEIGHT_TYPE: EUC_2D
NODE_COORD_SECTION
1 0.0 654.0
2 0.0 140.0
3 0.0 84.0
4 0.0 146.0
5 0.0 198.0
6 0.0 73.0
7 0.0 398.0
8 0.0 147.0
9 0.0 564.0
10 0.0 161.0
11 0.0 545.0
12 0.0 348.0
13 0.0 699.0
14 0.0 549.0
15 0.0 562.0
16 0.0 228.0
17 0.0 535.0
18 0.0 414.0
19 0.0 355.0
20 0.0 192.0
21 0.0 105.0
22 0.0 328.0
23 0.0 645.0
24 0.0 311.0
25 0.0 4.0
26 0.0 137.0
27 0.0 456.0
28 0.0 196.0
29 0.0 214.0
30 0.0 566.0
31 0.0 261.0
32 0.0 591.0
33 0.0 222.0
34 0.0 143.0
35 0.0 100.0
36 0.0 6.0
37 0.0 159.0
38 0.0 205.0
39 0.0 135.0
40 0.0 315.0
41 0.0 672.0
42 0.0 423.0
43 0.0 440.0
44 0.0 47.0
45 0.0 209.0
46 0.0 73.0
47 0.0 71.0
48 0.0 207.0
49 0.0 540.0
50 0.0 2.0
51 0.0 420.0
52 0.0 275.0
53 0.0 568.0
54 0.0 77.0
55 0.0 572.0
56 0.0 99.0
57 0.0 237.0
58 0.0 468.0
59 0.0 232.0
60 0.0 643.0
61 0.0 336.0
62 0.0 340.0
63 0.0 574.0
64 0.0 90.0
65 0.0 606.0
66 0.0 53.0
67 0.0 672.0
68 0.0 545.0
69 0.0 305.0
70 0.0 620.0
